JulietBench/Juliet_Based_Patch_Bench/linux/CWE-189-Numeric-Errors/CVE_2010_2478_db048b69037e7fa6a7d9e95a1271a50dc08ae233/Resultethtool_get_rxnfc_Snippet_patch1EQ.smt2
; benchmark generated from python API
(set-info :status unknown)
(declare-fun R () (_ BitVec 32))
(declare-fun rdi () (_ BitVec 64))
(assert
 (let (($x180 (= (_ bv4294967295 32) R)))
 (let ((?x6 ((_ extract 31 0) rdi)))
 (let (($x10 (= (_ bv0 32) ?x6)))
 (let (($x178 (and $x10 $x180)))
 (let ((?x64 ((_ extract 29 0) rdi)))
 (let ((?x65 (concat ?x64 (_ bv0 2))))
 (let (($x177 (= R ?x65)))
 (let (($x36 (and (distinct (_ bv0 32) ?x6) true)))
 (let (($x48 (bvule ?x6 (_ bv2097152 32))))
 (let (($x62 (and $x48 $x36 $x177)))
 (let (($x167 (bvugt ?x6 (_ bv2097152 32))))
 (let (($x181 (and $x167 $x36 $x180)))
 (let (($x51 (or $x181 $x62 $x178)))
 (let (($x61 (and $x36 $x177)))
 (let (($x179 (or $x61 $x178)))
 (and $x179 $x51)))))))))))))))))
(check-sat)
